$molecule
0 1
  H    0.6529991   -0.8397898    2.1600000
  C    0.1160991   -0.7669898    1.2087000
  C   -1.2739009   -0.7097898    1.1973000
  H   -1.8308009   -0.7375898    2.1393000
  C   -1.9562009   -0.6173898   -0.0114000
  C   -1.2488009   -0.5820898   -1.2088000
  H   -1.7858009   -0.5093898   -2.1599000
  C    0.1410991   -0.6393898   -1.1973000
  H    0.6976991   -0.6117898   -2.1395000
  C    0.8234991   -0.7317898    0.0114000
  H    1.9171991   -0.7767898    0.0205000
  N   -3.0500009   -0.5724898   -0.0204000
  O   -3.6539119   -0.5902088    1.0093688
  O   -3.6930521   -0.4991650   -1.1679836
$end

$rem
   BASIS  =  6-31G
   GUI  =  2
   METHOD  =  B3LYP
$end

