$molecule
0 1
  H   -2.8673270    3.3316838    1.7108101
  C   -2.9273892    2.2227969    1.5729069
  N   -1.5297807    1.7370070    1.5139797
  H   -1.0752900    2.1093805    0.7078076
  H   -1.5098650    0.7394261    1.4781086
  C   -3.6571409    1.6023574    2.7590846
  H   -4.6711686    2.0122058    2.8546629
  H   -3.1288971    1.8091776    3.6994809
  H   -3.7487470    0.5112294    2.6667397
  C   -3.7126375    1.9317093    0.2971586
  O   -3.4969831    1.0861271   -0.5532313
  O   -4.7856787    2.7239993    0.0811885
  H   -5.2236225    2.4681134   -0.7249730
$end

$rem
   BASIS  =  6-31G
   GUI  =  2
   JOB_TYPE  =  Optimization
   METHOD  =  HF
   SCF_CONVERGENCE  =  8
$end

$geom_opt
hessian_verify = recomputed
final_vibrational_analysis = true
$end


