$molecule
0 1
  H    1.3505733    0.6134426    0.9875000
  C    0.9170733    0.5948426   -0.0209000
  H    1.3323733    1.4503426   -0.5693000
  H    1.2809733   -0.3155574   -0.5145000
  C   -0.5861267    0.6398426    0.0209000
  H   -1.0014267   -0.2160574    0.5687000
  H   -0.9502267    1.5499426    0.5151000
  H   -1.0195267    0.6217426   -0.9875000
$end

$rem
   BASIS  =  6-31G
   GUI  =  2
   METHOD  =  B3LYP
$end

