$molecule
0 1
  H        -0.9378502980    0.0000000000    1.1119778829
C         0.0000000000    0.0000000000    0.5216047349
H         0.9378502980    0.0000000000    1.1119778829
O         0.0000000000    0.0000000000   -0.6813412007
$end

$rem
   BASIS  =  6-31g
   CC_TRANS_PROP  =  1
   CVS_EE_STATES  =  [1,0,0,0]
   GUI  =  2
   MEM_TOTAL  =  4000
   METHOD  =  EOM-CCSD
   N_FROZEN_CORE  =  2
$end

