$molecule
0 1
H        -0.9378502980    0.0000000000    1.1119778829
C         0.0000000000    0.0000000000    0.5216047349
H         0.9378502980    0.0000000000    1.1119778829
O         0.0000000000    0.0000000000   -0.6813412007
$end

$rem
   BASIS  =  6-31G
   EE_SINGLETS  =  [1,1,1,1]
   EE_TRIPLETS  =  [1,1,1,1]
   MEM_TOTAL  =  1000
   CC_MEMORY  =  200
   METHOD  =  EOM-CCSD
   CC_TRANS_PROP = true
   MOLDEN_FORMAT  =  true
   NTO_PAIRS  =  2
   STATE_ANALYSIS  =  true
$end
