$molecule
2 1
  Mg    0.0000000    0.0000000   -2.7336438
  C    0.0000000    0.0000000   -0.6242924
  C    0.0000000    0.0000000    0.6242924
 Mg    0.0000000    0.0000000    2.7336438
$end

$rem
   BASIS  =  6-31G*
   CC_MEMORY  =  200
   CC_TRANS_PROP  =  2
   DEA_SINGLETS  =  [1,0,0,0,0,0,1,1]
   DEA_TRIPLETS  =  [0,0,0,0,0,1,1,1]
   GUI  =  2
   METHOD  =  EOM-CCSD
$end

