$molecule
0 2
  Mg    0.0000000    0.0000000   -0.8006190
  O    0.0000000    0.0000000    0.9623810
  H    0.0000000    0.0000000    1.9083810
$end

$rem
   BASIS  =  6-31G*
   CC_DO_DYSON  =  1
   CC_MEMORY  =  200
   EA_STATES  =  [1,0,1,1]
   GUI  =  0
   METHOD  =  EOM-CCSD
   PRINT_GENERAL_BASIS  =  1
$end

