$molecule
0 1
  H   -1.6637381   -0.5703534   -2.2775110
  C   -1.1452083   -0.5858988   -1.3275833
  C    0.2521090   -0.6117757   -1.2944410
  H    0.8146888   -0.6162116   -2.2190986
  C    0.9237987   -0.6319841   -0.0677160
  H    2.0063387   -0.6519873   -0.0534773
  C    0.1984861   -0.6263485    1.1340086
  C   -1.2043767   -0.6002154    1.0944984
  H   -1.7777437   -0.5955325    2.0130399
  C   -1.8728804   -0.5800996   -0.1339681
  H   -2.9547307   -0.5600545   -0.1605913
  N    0.8771238   -0.6469652    2.3772553
  H    0.3513078   -0.6427932    3.2635656
  H    1.9068361   -0.6667483    2.4140624
$end

$rem
   BASIS  =  6-31G
   GUI  =  2
   METHOD  =  B3LYP
$end

