$molecule
0 1
  H    1.0413928    0.9159646    0.2334757
  C    0.5593486    0.6711479   -0.7219493
  H    0.9641722    1.3585595   -1.4760581
  H    0.8812028   -0.3411818   -0.9985191
  C   -0.9389129    0.7704776   -0.6285233
  H   -1.2626799    1.0686473    0.3771573
  H   -1.3401091    1.5112803   -1.3323254
  H   -1.4227572   -0.1885321   -0.8548614
$end

$rem
   BASIS  =  6-31G
   GUI  =  2
   METHOD  =  B3LYP
$end

