$molecule
0 1
  S    0.0000000    0.0000000    1.1897210
  C    0.0000000    1.2321840   -0.0104070
  C    0.0000000   -1.2321840   -0.0104070
  C    0.0000000    0.7131640   -1.2622250
  C    0.0000000   -0.7131640   -1.2622250
  H    0.0000000    2.2700100    0.2776190
  H    0.0000000   -2.2700100    0.2776190
  H    0.0000000    1.3132980   -2.1595960
  H    0.0000000   -1.3132980   -2.1595960
$end

$rem
   BASIS  =  AUG-PCSEG-0
   CIS_N_ROOTS  =  20
   CIS_SINGLETS  =  1
   CIS_TRIPLETS  =  0
   GUI  =  2
   METHOD  =  wB97X-D
   NTO_PAIRS  =  2
$end

