$molecule
0 1
  H   -0.9281198    1.1560216   -1.6280393
  C   -0.5008009    0.3242696   -1.0587237
  C   -0.4689356   -0.9524093   -1.6106091
  H   -0.8710616   -1.1254058   -2.6139243
  C    0.0739133   -2.0093449   -0.8872634
  H    0.0988975   -3.0139975   -1.3214803
  C    0.5850226   -1.7899008    0.3878990
  H    1.0121697   -2.6216855    0.9570430
  C    0.5530244   -0.5132911    0.9396974
  H    0.9550385   -0.3406711    1.9431380
  C    0.0101773    0.5437366    0.2163906
  H   -0.0149397    1.5483200    0.6505205
$end

$rem
   BASIS  =  6-31G
   GUI  =  2
   METHOD  =  B3LYP
$end

