$molecule
-1 1
--
-1 1
  Cl   -1.1242249    0.0179827    0.0000000
--
0 1
  O    1.9940516   -0.0909265    0.0000000
  H    1.0163933   -0.2184602    0.0000000
  H    2.0588108    0.8652887    0.0000000
$end

$rem
   BASIS  =  def2-SVPD
   EDA2  =  2
   EDA_BSSE  =  1
   GUI  =  0
   JOB_TYPE  =  EDA
   METHOD  =  wB97XV
   SOLVENT_METHOD  =  SMD
$end

$smx
   SOLVENT  WATER
$end

